c WARNING: for repeatability, setting FPU to use double precision
d VARIABLES            75036        
d CONSTRAINTS          300581       
c ============================[ Problem Statistics ]=============================
c |                                                                             |
c |  Number of variables:         75036                                         |
c |  Number of clauses:          300581                                         |
c |  Parse time:                   0.04 s                                       |
c |                                                                             |
c ============================[ Search Statistics ]==============================
c | Conflicts |          ORIGINAL         |          LEARNT          | Progress |
c |           |    Vars  Clauses Literals |    Limit  Clauses Lit/Cl |          |
c ===============================================================================
c |       100 |   54969   248559   607987 |    91138      100     50 | 26.743 % |
c |       250 |   54969   248559   607987 |   100252      250     71 | 26.743 % |
c |       475 |   54969   248559   607987 |   110277      475     87 | 26.743 % |
c |       812 |   54969   248559   607987 |   121305      812     99 | 26.743 % |
c |      1318 |   54969   248559   607987 |   133435     1318    105 | 26.743 % |
c |      2077 |   54969   248559   607987 |   146779     2077    109 | 26.743 % |
c |      3216 |   54969   248559   607987 |   161457     3216    133 | 26.743 % |
c |      4924 |   54969   248559   607987 |   177602     4924    131 | 26.743 % |
c |      7486 |   54969   248559   607987 |   195363     7486    152 | 26.743 % |
c |     11330 |   54969   248559   607987 |   214899    11330    150 | 26.743 % |
c |     17096 |   54969   248559   607987 |   236389    17096    138 | 26.743 % |
c |     25745 |   54969   248559   607987 |   260028    25745    143 | 26.743 % |
c |     38719 |   54969   248559   607987 |   286031    38719    150 | 26.743 % |
c |     58180 |   54969   248559   607987 |   314634    58180    156 | 26.743 % |
c |     87372 |   54969   248559   607987 |   346097    87372    174 | 26.743 % |
c |    131161 |   54969   248559   607987 |   380707   131161    182 | 26.743 % |
c |    196845 |   54969   248559   607987 |   418778   196845    172 | 26.743 % |
c |    295371 |   54969   248559   607987 |   460655   295371    178 | 26.743 % |
c |    443160 |   54969   248559   607987 |   506721   443160    168 | 26.743 % |
c |    664843 |   54969   248559   607987 |   557393   166367    141 | 26.743 % |
c |    997368 |   54969   248559   607987 |   613132   498892    161 | 26.743 % |
c |   1496156 |   54969   248559   607987 |   674446   388659    127 | 26.743 % |
c |   2244338 |   54969   248559   607987 |   741890   475151    123 | 26.743 % |
c |   3366612 |   54969   248559   607987 |   816079   133723     98 | 26.743 % |
c ===============================================================================
c restarts              : 6142
c conflicts             : 3541838        (1975 /sec)
c decisions             : 6864241        (0.00 % random) (3827 /sec)
c propagations          : 4203134760     (2343240 /sec)
c conflict literals     : 497520381      (43.15 % deleted)
d RESTARTS             6142
d FAILURES             3541838      
d NODES                6864241      
d BACKTRACKS           6864241      
d PROPAGATIONS         4203134760   
d NOGOODSIZE           140.47 
d MEMORY               705.00 
d TIME                 1793.73 

s UNKNOWN
